f:888122
solution:
91 101 119 37 199 62 151 19 179 13 61 49 40 94 198 169 191 150 98 190 156 110 54 183 121 31 53 173 194 115 22 184 155 187 10 136 128 125 66 139 30 65 142 55 147 84 163 99 143 124 4 116 46 16 25 48 15 176 174 73 161 82 71 104 27 158 35 64 144 160 81 185 123 117 168 195 186 52 89 165 171 43 29 93 92 122 1 170 113 182 192 72 20 131 77 59 36 120 60 146 154 167 50 0 88 86 159 5 63 79 47 178 42 196 193 80 102 106 7 85 164 32 107 133 17 166 148 90 132 114 162 68 138 41 8 135 69 6 23 153 33 188 38 97 126 177 152 24 14 70 157 87 189 172 118 141 137 145 78 197 28 57 11 100 175 34 140 51 95 127 75 83 44 12 45 18 58 149 76 2 180 74 103 181 96 112 111 21 56 130 67 9 129 3 108 26 105 109 134 39 
